p cnf 50 10
x 1 -3 7 9 -10 11 12 -16 17 18 -19 -20 21 26 -27 -29 31 33 -34 35 36 37 38 39 43 45 -47 0
x 2 3 -5 7 -11 12 14 -15 17 -18 21 -22 -26 28 -31 -32 36 40 41 42 43 44 -45 -46 -48 -50 0
x 3 -4 6 -7 -10 -11 -13 14 -15 17 18 -22 -23 25 29 30 -31 36 -37 38 39 40 41 42 47 49 0
x 1 2 4 7 -8 -10 12 13 -14 -16 17 18 19 21 23 27 -29 -30 31 32 34 35 36 -37 -39 -40 -42 46 48 49 50 0
x 1 3 4 5 -6 8 -11 13 14 -16 21 -22 23 24 -25 -27 -29 32 34 35 -36 -39 40 41 -42 43 -44 -45 -46 -50 0
x 3 4 6 11 -12 -14 15 17 -18 -20 22 27 28 31 32 -33 34 -35 -36 37 -39 -46 -47 50 0
x -2 3 6 7 10 -11 -13 -15 17 18 -19 20 24 -25 -27 -28 29 -30 -33 -34 41 -43 44 45 46 47 48 -49 0
x 1 2 -5 -7 12 16 18 19 20 21 -22 -23 -25 31 -33 -34 -37 -38 -39 -40 -41 43 44 46 48 0
x -1 -3 -5 7 8 9 -10 13 -14 18 20 -23 25 26 -27 -28 -33 36 -37 -38 39 40 -42 -44 -45 48 -49 0
x 2 -4 6 -10 -12 13 -16 -21 -22 -23 24 27 29 -30 -32 -33 35 -41 42 -44 45 -47 0
g -15